p wcnf 3000 300 1
1 1 0
1 2 0
1 3 0
1 4 0
1 5 0
1 6 0
1 7 0
1 8 0
1 9 0
1 10 0
1 11 0
1 12 0
1 13 0
1 14 0
1 15 0
1 1 1 1 1 1 1 1 1 1 1 1 1 1 1 0
1 1 2 2 2 2 2 2 2 2 2 2 2 2 2 0
1 2 2 2 2 2 2 2 2 2 2 2 2 2 2 0
1 2 3 3 3 3 3 3 3 3 3 3 3 3 3 0
1 3 3 3 3 3 3 3 3 3 3 4 4 4 4 0
1 4 4 4 4 4 4 4 4 4 4 4 4 4 4 0
1 4 4 4 4 4 4 4 4 4 4 4 5 5 5 0
1 5 5 5 5 5 5 5 5 5 5 5 5 5 5 0
1 5 5 5 5 5 5 5 5 5 5 5 5 5 6 0
1 6 6 6 6 6 6 6 6 6 6 6 6 6 6 0
1 6 6 6 6 6 6 6 6 6 6 6 7 7 7 0
1 7 7 7 7 7 7 7 7 7 7 7 7 7 7 0
1 7 7 7 7 7 7 7 7 7 8 8 8 8 8 0
1 8 8 8 8 8 8 8 8 8 8 8 8 8 8 0
1 8 8 8 8 8 8 8 8 8 8 8 8 8 8 0
1 8 8 8 8 9 9 9 9 9 9 9 9 9 9 0
1 9 9 9 9 9 9 9 9 9 9 9 9 9 9 0
1 10 10 10 10 10 10 10 10 10 10 10 10 10 10 0
1 10 10 10 10 10 10 10 10 10 10 10 10 10 10 0
1 10 10 10 10 10 10 11 11 11 11 11 11 11 11 0
1 11 11 11 11 11 11 11 11 11 11 11 11 11 11 0
1 11 11 11 11 11 12 12 12 12 12 12 12 12 12 0
1 12 12 12 12 12 12 12 12 12 12 12 12 12 12 0
1 12 12 12 12 13 13 13 13 13 13 13 13 13 13 0
1 13 13 13 13 13 13 13 13 13 13 13 13 13 13 0
1 13 13 13 13 13 13 13 14 14 14 14 14 14 14 0
1 14 14 14 14 14 14 14 14 14 14 14 14 14 14 0
1 14 14 14 14 14 14 14 14 14 14 14 14 14 14 0
1 14 15 15 15 15 15 15 15 15 15 15 15 15 15 0
1 15 15 15 15 15 15 15 15 15 15 15 15 15 15 0
1 15 15 16 16 16 16 16 16 16 16 16 16 16 16 0
1 16 16 16 16 16 16 16 16 16 16 16 17 17 17 0
1 17 17 17 17 17 17 17 17 17 17 17 17 17 17 0
1 17 17 17 17 17 17 17 17 17 17 17 17 17 17 0
1 17 17 17 17 17 18 18 18 18 18 18 18 18 18 0
1 18 18 18 18 18 18 18 18 18 18 18 18 18 18 0
1 18 19 19 19 19 19 19 19 19 19 19 19 19 19 0
1 19 19 19 19 19 19 19 19 19 19 19 19 20 20 0
1 20 20 20 20 20 20 20 20 20 20 20 20 20 20 0
1 20 20 20 20 20 20 20 20 20 20 20 20 20 20 0
1 20 20 21 21 21 21 21 21 21 21 21 21 21 21 0
1 21 21 21 21 21 21 21 21 21 21 21 21 21 21 0
1 21 21 21 21 21 21 21 22 22 22 22 22 22 22 0
1 22 22 22 22 22 22 22 22 22 22 22 22 22 22 0
1 22 22 23 23 23 23 23 23 23 23 23 23 23 23 0
1 23 23 23 23 23 23 23 23 23 23 23 23 23 23 0
1 23 23 23 23 24 24 24 24 24 24 24 24 24 24 0
1 24 24 24 24 24 24 24 24 24 24 24 24 24 24 0
1 24 24 24 24 24 24 24 25 25 25 25 25 25 25 0
1 25 25 25 25 25 25 25 25 25 25 25 25 25 25 0
1 25 25 25 25 25 25 25 25 25 25 25 25 25 25 0
1 25 25 25 25 25 25 25 25 25 26 26 26 26 26 0
1 26 26 26 26 26 26 26 26 26 26 26 26 26 26 0
1 26 26 26 27 27 27 27 27 27 27 27 27 27 27 0
1 27 27 27 27 27 27 27 27 27 27 27 27 27 27 0
1 28 28 28 28 28 28 28 28 28 28 28 28 28 28 0
1 28 28 28 28 28 28 28 28 28 28 28 28 28 28 0
1 28 28 28 28 29 29 29 29 29 29 29 29 29 29 0
1 29 29 29 29 29 29 29 29 29 29 29 29 29 29 0
1 29 29 29 29 29 29 29 29 29 29 30 30 30 30 0
1 30 30 30 30 30 30 30 30 30 30 30 30 30 30 0
1 30 30 30 30 31 31 31 31 31 31 31 31 31 31 0
1 31 31 31 31 31 31 31 31 31 31 31 31 31 31 0
1 31 31 31 31 31 31 31 31 32 32 32 32 32 32 0
1 32 32 32 32 32 32 32 32 32 32 32 32 32 32 0
1 32 32 32 32 32 32 32 33 33 33 33 33 33 33 0
1 33 33 33 33 33 33 33 33 33 33 33 33 33 33 0
1 33 33 33 33 33 33 34 34 34 34 34 34 34 34 0
1 34 34 34 34 34 34 34 34 34 34 34 34 34 34 0
1 34 34 34 34 34 34 35 35 35 35 35 35 35 35 0
1 35 35 35 35 35 35 35 35 35 35 35 35 35 36 0
1 36 36 36 36 36 36 36 36 36 36 36 36 36 36 0
1 36 36 36 36 36 36 36 36 36 36 36 36 36 36 0
1 36 36 36 36 36 37 37 37 37 37 37 37 37 37 0
1 37 37 37 37 37 37 37 37 37 37 37 37 37 37 0
1 37 38 38 38 38 38 38 38 38 38 38 38 38 38 0
1 38 38 38 38 38 38 38 38 38 38 38 39 39 39 0
1 39 39 39 39 39 39 39 39 39 39 39 39 39 39 0
1 39 39 39 39 39 39 39 39 39 40 40 40 40 40 0
1 40 40 40 40 40 40 40 40 40 40 40 40 40 40 0
1 40 40 40 40 40 40 40 40 40 40 40 40 41 41 0
1 41 41 41 41 41 41 41 41 41 41 41 41 41 41 0
1 41 41 42 42 42 42 42 42 42 42 42 42 42 42 0
1 42 42 42 42 42 42 42 42 42 42 42 42 42 42 0
1 42 42 42 42 42 42 43 43 43 43 43 43 43 43 0
1 43 43 43 43 43 43 43 43 43 43 43 43 43 43 0
1 43 44 44 44 44 44 44 44 44 44 44 44 44 44 0
1 44 44 44 44 44 44 44 44 44 44 44 44 44 44 0
1 44 44 44 45 45 45 45 45 45 45 45 45 45 45 0
1 45 45 45 45 45 45 45 45 45 45 45 45 45 45 0
1 45 45 46 46 46 46 46 46 46 46 46 46 46 46 0
1 46 46 46 46 46 46 46 46 46 46 46 46 46 46 0
1 46 46 46 47 47 47 47 47 47 47 47 47 47 47 0
1 47 47 47 47 47 47 47 47 47 47 47 47 47 47 0
1 47 47 47 47 47 47 47 47 48 48 48 48 48 48 0
1 48 48 48 48 48 48 48 48 48 48 48 48 48 48 0
1 48 48 48 48 48 48 48 48 48 49 49 49 49 49 0
1 49 49 49 49 49 49 49 49 49 49 49 49 49 49 0
1 49 49 49 49 49 49 49 49 49 49 49 49 49 49 0
1 49 49 49 49 50 50 50 50 50 50 50 50 50 50 0
1 50 50 50 50 50 50 50 50 50 50 50 50 50 50 0
1 50 50 51 51 51 51 51 51 51 51 51 51 51 51 0
1 51 51 51 51 51 51 51 51 51 51 51 51 51 51 0
1 51 51 51 52 52 52 52 52 52 52 52 52 52 52 0
1 52 52 52 52 52 52 52 52 52 52 52 52 52 52 0
1 52 52 52 53 53 53 53 53 53 53 53 53 53 53 0
1 53 53 53 53 53 53 53 53 53 53 53 53 53 53 0
1 53 54 54 54 54 54 54 54 54 54 54 54 54 54 0
1 54 54 54 54 54 54 54 54 54 54 54 54 55 55 0
1 55 55 55 55 55 55 55 55 55 55 55 55 55 55 0
1 55 55 55 55 55 55 55 55 55 55 55 55 55 55 0
1 56 56 56 56 56 56 56 56 56 56 56 56 56 56 0
1 56 56 56 56 56 56 56 56 56 56 56 56 56 56 0
1 57 57 57 57 57 57 57 57 57 57 57 57 57 57 0
1 57 57 57 57 57 57 57 57 57 57 57 57 57 58 0
1 58 58 58 58 58 58 58 58 58 58 58 58 58 58 0
1 58 58 58 58 58 58 58 58 58 58 58 58 58 58 0
1 59 59 59 59 59 59 59 59 59 59 59 59 59 59 0
1 59 59 59 59 59 59 59 59 59 59 59 59 60 60 0
1 60 60 60 60 60 60 60 60 60 60 60 60 60 60 0
1 60 60 60 60 60 60 60 60 60 60 61 61 61 61 0
1 61 61 61 61 61 61 61 61 61 61 61 61 61 61 0
1 61 61 61 61 61 61 61 61 61 61 61 62 62 62 0
1 62 62 62 62 62 62 62 62 62 62 62 62 62 62 0
1 62 62 62 62 62 63 63 63 63 63 63 63 63 63 0
1 63 63 63 63 63 63 63 63 63 63 63 63 63 63 0
1 63 63 63 63 63 64 64 64 64 64 64 64 64 64 0
1 64 64 64 64 64 64 64 64 64 64 64 64 64 64 0
1 64 64 64 64 64 65 65 65 65 65 65 65 65 65 0
1 65 65 65 65 65 65 65 65 65 65 65 65 65 65 0
1 65 65 65 65 66 66 66 66 66 66 66 66 66 66 0
1 66 66 66 66 66 66 66 66 66 66 66 66 66 66 0
1 66 66 66 66 66 66 67 67 67 67 67 67 67 67 0
1 67 67 67 67 67 67 67 67 67 67 67 67 67 67 0
1 67 67 67 67 67 67 67 67 67 67 67 68 68 68 0
1 68 68 68 68 68 68 68 68 68 68 68 68 68 68 0
1 68 68 68 68 68 68 68 68 68 68 68 69 69 69 0
1 69 69 69 69 69 69 69 69 69 69 69 69 69 69 0
1 69 69 69 69 69 69 70 70 70 70 70 70 70 70 0
1 70 70 70 70 70 70 70 70 70 70 70 70 70 70 0
1 70 70 70 70 70 70 70 70 70 70 70 71 71 71 0
1 71 71 71 71 71 71 71 71 71 71 71 71 71 71 0
1 71 71 71 71 71 71 71 71 71 71 71 71 72 72 0
1 72 72 72 72 72 72 72 72 72 72 72 72 72 72 0
1 72 72 72 72 72 72 72 72 72 72 72 72 72 72 0
1 73 73 73 73 73 73 73 73 73 73 73 73 73 73 0
1 73 73 73 73 74 74 74 74 74 74 74 74 74 74 0
1 74 74 74 74 74 74 74 74 74 74 74 74 74 74 0
1 74 74 74 74 74 74 74 74 74 75 75 75 75 75 0
1 75 75 75 75 75 75 75 75 75 75 75 75 75 75 0
1 75 75 75 75 75 75 75 75 76 76 76 76 76 76 0
1 76 76 76 76 76 76 76 76 76 76 76 76 76 76 0
1 76 76 77 77 77 77 77 77 77 77 77 77 77 77 0
1 77 77 77 77 77 77 77 77 77 77 77 77 77 77 0
1 77 78 78 78 78 78 78 78 78 78 78 78 78 78 0
1 78 78 78 78 78 78 78 78 78 78 78 78 78 79 0
1 79 79 79 79 79 79 79 79 79 79 79 79 79 79 0
1 79 79 79 79 79 79 79 79 79 79 79 80 80 80 0
1 80 80 80 80 80 80 80 80 80 80 80 80 80 80 0
1 80 80 80 80 80 80 80 80 81 81 81 81 81 81 0
1 81 81 81 81 81 81 81 81 81 81 81 81 81 81 0
1 81 81 81 81 81 82 82 82 82 82 82 82 82 82 0
1 82 82 82 82 82 82 82 82 82 82 82 82 82 82 0
1 82 82 82 82 82 83 83 83 83 83 83 83 83 83 0
1 83 83 83 83 83 83 83 83 83 83 83 83 83 83 0
1 83 83 84 84 84 84 84 84 84 84 84 84 84 84 0
1 84 84 84 84 84 84 84 84 84 84 84 84 84 84 0
1 84 84 84 84 85 85 85 85 85 85 85 85 85 85 0
1 85 85 85 85 85 85 85 85 85 85 85 85 85 85 0
1 85 85 85 85 85 85 85 85 85 85 85 85 85 86 0
1 86 86 86 86 86 86 86 86 86 86 86 86 86 86 0
1 86 86 86 86 86 86 86 86 86 86 86 86 86 86 0
1 86 87 87 87 87 87 87 87 87 87 87 87 87 87 0
1 87 87 87 87 87 87 87 87 88 88 88 88 88 88 0
1 88 88 88 88 88 88 88 88 88 88 88 88 88 88 0
1 88 88 88 88 88 88 88 88 88 88 88 88 89 89 0
1 89 89 89 89 89 89 89 89 89 89 89 89 89 89 0
1 89 89 89 89 89 89 89 89 89 89 89 89 89 89 0
1 90 90 90 90 90 90 90 90 90 90 90 90 90 90 0
1 90 90 90 90 90 90 90 90 90 90 90 90 90 90 0
1 90 90 90 90 90 91 91 91 91 91 91 91 91 91 0
1 91 91 91 91 91 91 91 91 91 91 91 91 91 91 0
1 91 91 92 92 92 92 92 92 92 92 92 92 92 92 0
1 92 92 92 92 92 92 92 92 92 92 92 92 92 93 0
1 93 93 93 93 93 93 93 93 93 93 93 93 93 93 0
1 93 93 93 93 93 93 93 93 93 93 93 93 93 93 0
1 94 94 94 94 94 94 94 94 94 94 94 94 94 94 0
1 94 94 94 94 94 94 95 95 95 95 95 95 95 95 0
1 95 95 95 95 95 95 95 95 95 95 95 95 95 95 0
1 95 95 95 96 96 96 96 96 96 96 96 96 96 96 0
1 96 96 96 96 96 96 96 96 96 96 96 96 96 96 0
1 96 96 96 96 96 96 96 97 97 97 97 97 97 97 0
1 97 97 97 97 97 97 97 97 97 97 97 97 97 97 0
1 97 98 98 98 98 98 98 98 98 98 98 98 98 98 0
1 98 98 98 98 98 98 98 98 98 98 99 99 99 99 0
1 99 99 99 99 99 99 99 99 99 99 99 99 99 99 0
1 99 99 99 99 99 99 99 99 99 99 99 99 100 100 0
1 100 100 100 100 100 100 100 100 100 100 100 100 100 100 0
1 100 100 100 100 100 100 100 100 100 100 100 100 100 100 0
1  0
1 15 30 45 67 97 105 188 279 310 346 361 482 539 659 0
1 773 841 900 981 1111 1235 1287 1326 1444 1545 1553 1624 1721 1882 0
1 1916 1986 2003 2014 2049 2076 2118 2131 2161 2163 2165 2211 2257 2265 0
1 2414 2419 2456 2463 2471 2475 2489 2516 2540 2633 2634 2660 2791 2861 0
1 2921 2930 0
1  0
1 79 155 248 436 532 572 714 892 927 990 1002 1023 1049 1058 0
1 1201 1211 1331 1388 1409 1546 1553 1687 1744 1786 1831 1851 1882 1931 0
1 1962 1976 2068 2108 2247 2262 2276 2299 2373 2442 2488 2552 2582 2591 0
1 2623 2626 2641 2654 2681 2686 2687 2709 2722 2745 2794 2935 0
1  0
1 87 123 125 211 254 262 283 316 339 340 393 399 419 659 0
1 795 810 835 968 985 1002 1007 1018 1094 1358 1421 1505 1509 1657 0
1 1717 1723 1740 1760 1775 1807 1849 1898 2041 2063 2076 2078 2094 2155 0
1 2239 2255 2334 2415 2439 2526 2559 2573 2658 2761 2799 2855 2879 2909 0
1 2940 2950 0
1  0
1 75 108 125 130 132 194 227 271 272 297 400 475 550 558 0
1 601 671 696 702 815 816 820 821 858 948 1058 1102 1148 1262 0
1 1391 1397 1429 1530 1539 1748 1751 1799 1821 1841 1876 1919 2049 2093 0
1 2194 2196 2240 2252 2255 2333 2393 2412 2421 2507 2550 2554 2604 2629 0
1 2738 2760 2764 2788 2793 2811 2869 2948 0
1  0
1 51 138 139 350 434 682 730 761 815 936 1013 1033 1096 1145 0
1 1191 1219 1264 1282 1315 1321 1349 1367 1436 1511 1524 1548 1665 1675 0
1 1781 1786 1885 1888 1982 2059 2068 2078 2129 2159 2193 2214 2310 2322 0
1 2519 2565 2591 2618 2655 2755 2796 2838 2865 2876 2893 2950 2956 0
1  0
1 127 141 153 180 280 326 396 440 446 502 543 573 588 719 0
1 754 966 973 1000 1205 1405 1436 1444 1467 1586 1601 1610 1639 1670 0
1 1794 1799 1832 1843 1881 1899 1972 2015 2107 2134 2162 2204 2281 2373 0
1 2626 2704 2705 2765 2772 2812 2877 0
1  0
1 40 101 111 277 327 337 366 412 540 583 595 611 659 715 0
1 864 916 929 944 1001 1074 1076 1079 1138 1153 1174 1274 1308 1318 0
1 1457 1512 1616 1704 1723 1755 1788 1827 1867 1943 2001 2016 2070 2175 0
1 2223 2249 2279 2304 2305 2308 2439 2442 2470 2549 2566 2567 2575 2788 0
1 2893 2938 2941 2963 0
1  0
1 18 33 102 145 196 264 373 421 473 508 566 578 619 717 0
1 860 1039 1157 1171 1173 1229 1271 1303 1330 1382 1394 1402 1460 1514 0
1 1560 1571 1579 1580 1595 1815 1967 2045 2099 2130 2136 2173 2193 2201 0
1 2337 2341 2448 2458 2496 2540 2618 2695 2699 2813 2818 2836 2987 0
1  0
1 183 308 470 475 486 535 547 589 619 624 626 681 744 779 0
1 836 838 845 916 970 971 1004 1031 1045 1125 1127 1177 1187 1188 0
1 1475 1510 1538 1565 1606 1649 1661 1795 1827 1971 1991 2001 2038 2074 0
1 2172 2226 2236 2321 2330 2357 2386 2400 2450 2480 2495 2515 2548 2636 0
1 2707 2783 2795 2940 2989 0
1  0
1 198 420 440 495 628 711 729 794 795 846 884 1121 1199 1250 0
1 1299 1310 1379 1459 1599 1618 1624 1651 1672 1715 1719 1743 1786 1850 0
1 1908 1920 1924 1985 2033 2038 2104 2112 2128 2221 2348 2410 2418 2485 0
1 2621 2654 2673 2730 2739 2766 2771 2793 2831 2836 2847 2857 2871 0
1  0
1 113 153 167 185 202 242 243 263 496 523 659 774 820 841 0
1 1044 1066 1123 1157 1206 1207 1239 1242 1257 1369 1451 1476 1536 1597 0
1 1700 1774 1809 1844 1853 1860 1899 1934 1971 2214 2264 2286 2328 2361 0
1 2531 2559 2650 2680 2696 2732 2811 2916 2934 2991 0
1  0
1 147 257 278 323 459 472 565 637 655 691 693 773 839 898 0
1 953 958 1189 1341 1365 1388 1479 1507 1632 1762 1863 1896 1999 2009 0
1 2039 2052 2068 2069 2159 2313 2317 2375 2466 2535 2705 2842 2892 2958 0
1  0
1 178 235 251 290 363 367 453 474 496 544 590 617 655 714 0
1 792 801 957 999 1018 1030 1058 1062 1152 1226 1245 1253 1314 1319 0
1 1350 1517 1569 1659 1724 1741 1888 1891 1941 2047 2168 2329 2338 2369 0
1 2453 2495 2521 2537 2617 2718 2735 0
1  0
1 65 71 79 144 219 255 322 429 445 475 537 563 626 655 0
1 730 732 760 778 923 926 927 1016 1027 1096 1149 1233 1328 1332 0
1 1352 1374 1536 1659 1688 1755 1784 1800 1867 1955 1967 1973 2048 2162 0
1 2314 2378 2397 2420 2437 2474 2519 2524 2578 2669 2722 2787 2988 0
1  0
1 63 66 89 100 368 372 430 476 511 598 679 728 770 796 0
1 845 975 1029 1048 1054 1099 1145 1168 1336 1386 1394 1412 1450 1459 0
1 1491 1579 1608 1644 1712 1750 1822 1849 1875 1877 1913 2015 2039 2080 0
1 2208 2212 2350 2384 2399 2423 2470 2579 2628 2638 2655 2657 2729 2742 0
1 2957 0
1  0
1 102 110 118 178 193 198 295 319 505 578 601 843 1003 1010 0
1 1200 1291 1303 1468 1508 1522 1544 1571 1662 1746 1747 1871 1924 1977 0
1 2003 2006 2039 2114 2166 2196 2284 2328 2330 2366 2373 2374 2384 2389 0
1 2604 2642 2678 2701 2721 2781 2822 2865 2870 2923 0
1  0
1 24 36 55 59 102 291 406 620 627 633 667 739 761 834 0
1 971 982 985 1029 1118 1132 1143 1151 1275 1320 1324 1366 1384 1433 0
1 1529 1534 1596 1649 1688 1717 1777 1863 2013 2139 2277 2335 2411 2413 0
1 2528 2542 2599 2600 2620 2656 2692 2719 2738 2781 2804 2844 2853 2892 0
1 2953 2979 0
1  0
1 90 130 167 185 247 255 280 294 369 396 455 473 487 545 0
1 904 931 941 959 1028 1068 1268 1376 1478 1564 1630 1643 1668 1689 0
1 1793 1944 1984 2039 2068 2126 2250 2332 2371 2395 2471 2480 2497 2515 0
1 2588 2610 2617 2673 2752 2786 2837 2970 2988 2996 0
1  0
1 119 169 180 189 246 266 267 319 379 388 478 585 603 635 0
1 685 811 853 982 985 1030 1117 1150 1158 1172 1236 1295 1410 1513 0
1 1537 1566 1624 1696 1784 1930 1979 1987 2104 2216 2336 2423 2450 2522 0
1 2686 2828 2840 2865 2898 2938 0
